Problem:    05
Rows:       32
Columns:    19
Non-zeros:  76
Status:     OPTIMAL
Objective:  profits = 7166.666667 (MAXimum)

   No.   Row name   St   Activity     Lower bound   Upper bound    Marginal
------ ------------ -- ------------- ------------- ------------- -------------
     1 Limite_minimo[A,Super]
                    B           1100            -0               
     2 Limite_minimo[A,Normale]
                    B           1900            -0               
     3 Limite_minimo[A,Verde]
                    B              0            -0               
     4 Limite_minimo[B,Super]
                    NL             0            -0                    -3.33333 
     5 Limite_minimo[B,Normale]
                    NL             0            -0                    -3.33333 
     6 Limite_minimo[B,Verde]
                    B              0            -0               
     7 Limite_minimo[C,Super]
                    B           1100            -0               
     8 Limite_minimo[C,Normale]
                    B           2900            -0               
     9 Limite_minimo[C,Verde]
                    B              0            -0               
    10 Limite_minimo[D,Super]
                    B              0            -0               
    11 Limite_minimo[D,Normale]
                    B              0            -0               
    12 Limite_minimo[D,Verde]
                    B              0            -0               
    13 Limite_massimo[A,Super]
                    NU             0                          -0         < eps
    14 Limite_massimo[A,Normale]
                    B       -766.667                          -0 
    15 Limite_massimo[A,Verde]
                    B              0                          -0 
    16 Limite_massimo[B,Super]
                    B          -2200                          -0 
    17 Limite_massimo[B,Normale]
                    B          -4800                          -0 
    18 Limite_massimo[B,Verde]
                    B              0                          -0 
    19 Limite_massimo[C,Super]
                    B       -733.333                          -0 
    20 Limite_massimo[C,Normale]
                    B       -2433.33                          -0 
    21 Limite_massimo[C,Verde]
                    B              0                          -0 
    22 Limite_massimo[D,Super]
                    B       -3666.67                          -0 
    23 Limite_massimo[D,Normale]
                    B       -5333.33                          -0 
    24 Limite_massimo[D,Verde]
                    B              0                          -0 
    25 Risorse[A]   NS             0            -0             =       4.16667 
    26 Risorse[B]   NS             0            -0             =           7.5 
    27 Risorse[C]   NS             0            -0             =       4.16667 
    28 Risorse[D]   NS             0            -0             =             5 
    29 Prodotti[Super]
                    NS             0            -0             =      -4.16667 
    30 Prodotti[Normale]
                    NS             0            -0             =      -4.16667 
    31 Prodotti[Verde]
                    NS             0            -0             =      -4.16667 
    32 profits      B        7166.67                             

   No. Column name  St   Activity     Lower bound   Upper bound    Marginal
------ ------------ -- ------------- ------------- ------------- -------------
     1 x[A,Super]   B           1100             0               
     2 x[A,Normale] B           1900             0               
     3 x[A,Verde]   B              0             0               
     4 x[B,Super]   B        1466.67             0               
     5 x[B,Normale] B        533.333             0               
     6 x[B,Verde]   NL             0             0                    -3.33333 
     7 x[C,Super]   B           1100             0               
     8 x[C,Normale] B           2900             0               
     9 x[C,Verde]   NL             0             0                       < eps
    10 x[D,Super]   NL             0             0                   -0.833333 
    11 x[D,Normale] NL             0             0                   -0.833333 
    12 x[D,Verde]   NL             0             0                   -0.833333 
    13 y[A]         NU          3000             0          3000       1.16667 
    14 y[B]         NU          2000             0          2000           1.5 
    15 y[C]         NU          4000             0          4000      0.166667 
    16 y[D]         B              0             0          1000 
    17 z[Super]     B        3666.67             0               
    18 z[Normale]   B        5333.33             0               
    19 z[Verde]     NL             0             0                   -0.666667 

Karush-Kuhn-Tucker optimality conditions:

KKT.PE: max.abs.err = 4.55e-013 on row 16
        max.rel.err = 1.03e-016 on row 13
        High quality

KKT.PB: max.abs.err = 0.00e+000 on row 0
        max.rel.err = 0.00e+000 on row 0
        High quality

KKT.DE: max.abs.err = 0.00e+000 on column 0
        max.rel.err = 0.00e+000 on column 0
        High quality

KKT.DB: max.abs.err = 8.53e-017 on row 13
        max.rel.err = 8.53e-017 on row 13
        High quality

End of output
